Problem:    
Rows:       256
Columns:    89 (72 integer, 72 binary)
Non-zeros:  960
Status:     INTEGER OPTIMAL
Objective:  value = 149.860839 (MINimum)

   No.   Row name        Activity     Lower bound   Upper bound
------ ------------    ------------- ------------- -------------
     1 r.5                   149.861             0               
     2 r.6                   84.0938      -976.034               
     3 r.7                   1149.86             0               
     4 r.8                   -921.31      -965.107               
     5 r.9                   149.861             0               
     6 r.10                   88.828      -973.522               
     7 r.11                  1149.86             0               
     8 r.12                 -958.213       -963.03               
     9 r.13                  1149.86             0               
    10 r.14                 -912.447       -960.58               
    11 r.15                  149.861             0               
    12 r.16                  87.5533      -940.622               
    13 r.17                  1149.86             0               
    14 r.18                 -951.867      -977.835               
    15 r.19                  149.861             0               
    16 r.20                  48.1335      -966.947               
    17 r.21                  1149.86             0               
    18 r.22                 -975.306      -980.123               
    19 r.23                  149.861             0               
    20 r.24                   86.104      -970.688               
    21 r.25                  1149.86             0               
    22 r.26                 -997.732      -997.732               
    23 r.27                  149.861             0               
    24 r.28                  8.83736       -969.83               
    25 r.29                  149.861             0               
    26 r.30                  149.861      -936.964               
    27 r.31                  1149.86             0               
    28 r.32                 -850.139      -934.233               
    29 r.33                  1149.86             0               
    30 r.34                 -850.139      -937.692               
    31 r.35                  149.861             0               
    32 r.36                  149.861      -934.468               
    33 r.37                        1             1             = 
    34 r.38                        1             1             = 
    35 r.39                        1             1             = 
    36 r.40                        1             1             = 
    37 r.41                        1             1             = 
    38 r.42                        1             1             = 
    39 r.43                        1             1             = 
    40 r.44                        1             1             = 
    41 r.45                     1000             2               
    42 r.46                    -1000         -1001               
    43 r.47                  2004.73      -973.522               
    44 r.48                        2             2               
    45 r.49                       -2         -1001               
    46 r.50                 -36.9027       -963.03               
    47 r.51                     1001             2               
    48 r.52                    -1001         -1001               
    49 r.53                  2003.46       -960.58               
    50 r.54                     1001             2               
    51 r.55                    -1001         -1001               
    52 r.56                  2008.86      -940.622               
    53 r.57                     1001             2               
    54 r.58                    -1001         -1001               
    55 r.59                  1964.04      -977.835               
    56 r.60                     1001             2               
    57 r.61                    -1001         -1001               
    58 r.62                  1969.44      -966.947               
    59 r.63                     1001             2               
    60 r.64                    -1001         -1001               
    61 r.65                   1940.6      -980.123               
    62 r.66                     1001             2               
    63 r.67                    -1001         -1001               
    64 r.68                  2007.41      -970.688               
    65 r.69                  79.2768      -976.034               
    66 r.70                 -926.127      -965.107               
    67 r.71                  79.2768      -976.034               
    68 r.72                 -926.127      -965.107               
    69 r.73                   65.767      -936.964               
    70 r.74                 -934.233      -934.233               
    71 r.75                  71.1711      -936.964               
    72 r.76                 -928.829      -934.233               
    73 r.77                     1001             2               
    74 r.78                    -1001         -1001               
    75 r.79                  2065.77      -937.692               
    76 r.80                     1001             2               
    77 r.81                    -1001         -1001               
    78 r.82                  2071.17      -934.468               
    79 r.83                     1000             2               
    80 r.84                    -1000         -1001               
    81 r.85                  1996.54       23.9656               
    82 r.86                        2             2               
    83 r.87                       -2         -1001               
    84 r.88                  34.8926       34.8926               
    85 r.89                     1001             2               
    86 r.90                    -1001         -1001               
    87 r.91                     2000       -960.58               
    88 r.92                     1001             2               
    89 r.93                    -1001         -1001               
    90 r.94                  2043.76      -940.622               
    91 r.95                     1001             2               
    92 r.96                    -1001         -1001               
    93 r.97                  1960.58      -977.835               
    94 r.98                     1001             2               
    95 r.99                    -1001         -1001               
    96 r.100                 2004.34      -966.947               
    97 r.101                    1001             2               
    98 r.102                   -1001         -1001               
    99 r.103                 1937.14      -980.123               
   100 r.104                    1001             2               
   101 r.105                   -1001         -1001               
   102 r.106                 2042.31      -970.688               
   103 r.107                 84.0109      -973.522               
   104 r.108                 -963.03       -963.03               
   105 r.109                 84.0109      -973.522               
   106 r.110                 -963.03       -963.03               
   107 r.111                    1000             2               
   108 r.112                   -1000         -1001               
   109 r.113                 2062.31      -936.964               
   110 r.114                       2             2               
   111 r.115                      -2         -1001               
   112 r.116                -893.936      -934.233               
   113 r.117                -937.692      -937.692               
   114 r.118                 62.3075      -934.468               
   115 r.119                -893.936      -937.692               
   116 r.120                 106.064      -934.468               
   117 r.121                    1001             2               
   118 r.122                   -1001         -1001               
   119 r.123                 1996.54       23.9656               
   120 r.124                    1001             2               
   121 r.125                   -1001         -1001               
   122 r.126                 1991.14       34.8926               
   123 r.127                    1001             2               
   124 r.128                   -1001         -1001               
   125 r.129                 2001.27        26.478               
   126 r.130                    1001             2               
   127 r.131                   -1001         -1001               
   128 r.132                 1954.23       36.9699               
   129 r.133                 -960.58       -960.58               
   130 r.134                 39.4198      -940.622               
   131 r.135                 -960.58       -960.58               
   132 r.136                 39.4198      -940.622               
   133 r.137                       2             2               
   134 r.138                      -2         -1001               
   135 r.139                -62.8597      -980.123               
   136 r.140                    1000             2               
   137 r.141                   -1000         -1001               
   138 r.142                 1998.55      -970.688               
   139 r.143                -917.264       -960.58               
   140 r.144                 82.7363      -940.622               
   141 r.145                -917.264       -960.58               
   142 r.146                 82.7363      -940.622               
   143 r.147                    1001             2               
   144 r.148                   -1001         -1001               
   145 r.149                 2062.31      -936.964               
   146 r.150                    1001             2               
   147 r.151                   -1001         -1001               
   148 r.152                 2062.31      -934.233               
   149 r.153                -937.692      -937.692               
   150 r.154                 62.3075      -934.468               
   151 r.155                -937.692      -937.692               
   152 r.156                 62.3075      -934.468               
   153 r.157                    1001             2               
   154 r.158                   -1001         -1001               
   155 r.159                 2035.96       23.9656               
   156 r.160                    1001             2               
   157 r.161                   -1001         -1001               
   158 r.162                 2030.56       34.8926               
   159 r.163                    1001             2               
   160 r.164                   -1001         -1001               
   161 r.165                 2040.69        26.478               
   162 r.166                    1001             2               
   163 r.167                   -1001         -1001               
   164 r.168                 1993.65       36.9699               
   165 r.169                       2             2               
   166 r.170                      -2         -1001               
   167 r.171                -23.4398      -980.123               
   168 r.172                    1000             2               
   169 r.173                   -1000         -1001               
   170 r.174                 2037.97      -970.688               
   171 r.175                -956.684      -977.835               
   172 r.176                 43.3164      -966.947               
   173 r.177                -956.684      -977.835               
   174 r.178                 43.3164      -966.947               
   175 r.179                    1001             2               
   176 r.180                   -1001         -1001               
   177 r.181                 2101.73      -936.964               
   178 r.182                    1001             2               
   179 r.183                   -1001         -1001               
   180 r.184                 2101.73      -934.233               
   181 r.185                -898.273      -937.692               
   182 r.186                 101.727      -934.468               
   183 r.187                -898.273      -937.692               
   184 r.188                 101.727      -934.468               
   185 r.189                    1001             2               
   186 r.190                   -1001         -1001               
   187 r.191                 2058.13       23.9656               
   188 r.192                    1001             2               
   189 r.193                   -1001         -1001               
   190 r.194                  1994.6       34.8926               
   191 r.195                    1001             2               
   192 r.196                   -1001         -1001               
   193 r.197                 2062.86        26.478               
   194 r.198                    1001             2               
   195 r.199                   -1001         -1001               
   196 r.200                 1957.69       36.9699               
   197 r.201                       2             2               
   198 r.202                      -2         -1001               
   199 r.203                  61.585       39.4198               
   200 r.204                    1000             2               
   201 r.205                   -1000         -1001               
   202 r.206                 2003.46        59.378               
   203 r.207                       2             2               
   204 r.208                      -2         -1001               
   205 r.209                 22.1652       22.1652               
   206 r.210                    1000             2               
   207 r.211                   -1000         -1001               
   208 r.212                 1964.04       33.0531               
   209 r.213                -980.123      -980.123               
   210 r.214                 81.2869      -970.688               
   211 r.215                -980.123      -980.123               
   212 r.216                 81.2869      -970.688               
   213 r.217                 123.893      -936.964               
   214 r.218                -876.107      -934.233               
   215 r.219                  65.767      -936.964               
   216 r.220                -934.233      -934.233               
   217 r.221                -876.107      -937.692               
   218 r.222                 123.893      -934.468               
   219 r.223                -934.233      -937.692               
   220 r.224                  65.767      -934.468               
   221 r.225                    1000             2               
   222 r.226                   -1000         -1001               
   223 r.227                 1938.97        26.478               
   224 r.228                       2             2               
   225 r.229                      -2         -1001               
   226 r.230                 891.926       36.9699               
   227 r.231                    1001             2               
   228 r.232                   -1001         -1001               
   229 r.233                 1937.69       39.4198               
   230 r.234                    1001             2               
   231 r.235                   -1001         -1001               
   232 r.236                 1937.69        59.378               
   233 r.237                    1001             2               
   234 r.238                   -1001         -1001               
   235 r.239                 1898.27       22.1652               
   236 r.240                    1001             2               
   237 r.241                   -1001         -1001               
   238 r.242                 1898.27       33.0531               
   239 r.243                    1001             2               
   240 r.244                   -1001         -1001               
   241 r.245                    2000      -937.692               
   242 r.246                    1001             2               
   243 r.247                   -1001         -1001               
   244 r.248                    2000      -934.468               
   245 r.249                    1001             2               
   246 r.250                   -1001         -1001               
   247 r.251                 1934.23       23.9656               
   248 r.252                    1001             2               
   249 r.253                   -1001         -1001               
   250 r.254                 1928.83       34.8926               
   251 r.255                    1001             2               
   252 r.256                   -1001         -1001               
   253 r.257                    2000       63.0357               
   254 r.258                    1001             2               
   255 r.259                   -1001         -1001               
   256 r.260                    2000        65.767               

   No. Column name       Activity     Lower bound   Upper bound
------ ------------    ------------- ------------- -------------
     1 tt                    149.861             0               
     2 s_1_1        *              0             0             1 
     3 t_1_1                  65.767             0               
     4 s_1_7        *              0             0             1 
     5 s_2_1        *              1             0             1 
     6 t_2_1                 71.1711             0               
     7 s_2_7        *              1             0             1 
     8 s_1_2        *              0             0             1 
     9 t_1_2                 62.3075             0               
    10 s_1_8        *              1             0             1 
    11 s_2_2        *              1             0             1 
    12 t_2_2                 106.064             0               
    13 s_2_8        *              0             0             1 
    14 s_1_3        *              1             0             1 
    15 t_1_3                 62.3075             0               
    16 s_2_3        *              0             0             1 
    17 t_2_3                 62.3075             0               
    18 s_1_4        *              1             0             1 
    19 t_1_4                 101.727             0               
    20 s_2_4        *              0             0             1 
    21 t_2_4                 101.727             0               
    22 s_1_5        *              1             0             1 
    23 t_1_5                 123.893             0               
    24 s_2_5        *              0             0             1 
    25 t_2_5                  65.767             0               
    26 s_1_6        *              1             0             1 
    27 t_1_6                 145.044             0               
    28 s_2_6        *              0             0             1 
    29 t_2_6                 145.044             0               
    30 t_1_7                       0             0               
    31 t_2_7                       0             0               
    32 t_1_8                       0             0               
    33 t_2_8                       0             0               
    34 r_1_1_2      *              1             0             1 
    35 u_1_1_2      *              0             0             1 
    36 r_2_1_2      *              0             0             1 
    37 u_2_1_2      *              0             0             1 
    38 r_1_1_3      *              1             0             1 
    39 u_1_1_3      *              0             0             1 
    40 r_2_1_3      *              1             0             1 
    41 u_2_1_3      *              0             0             1 
    42 r_1_1_4      *              1             0             1 
    43 u_1_1_4      *              0             0             1 
    44 r_2_1_4      *              1             0             1 
    45 u_2_1_4      *              0             0             1 
    46 r_1_1_5      *              1             0             1 
    47 u_1_1_5      *              0             0             1 
    48 r_2_1_5      *              1             0             1 
    49 u_2_1_5      *              0             0             1 
    50 r_1_1_8      *              1             0             1 
    51 u_1_1_8      *              0             0             1 
    52 r_2_1_8      *              1             0             1 
    53 u_2_1_8      *              0             0             1 
    54 r_1_2_3      *              1             0             1 
    55 u_1_2_3      *              0             0             1 
    56 r_2_2_3      *              1             0             1 
    57 u_2_2_3      *              0             0             1 
    58 r_1_2_4      *              1             0             1 
    59 u_1_2_4      *              0             0             1 
    60 r_2_2_4      *              1             0             1 
    61 u_2_2_4      *              0             0             1 
    62 r_1_2_5      *              1             0             1 
    63 u_1_2_5      *              0             0             1 
    64 r_2_2_5      *              1             0             1 
    65 u_2_2_5      *              0             0             1 
    66 r_1_2_7      *              1             0             1 
    67 u_1_2_7      *              0             0             1 
    68 r_2_2_7      *              0             0             1 
    69 u_2_2_7      *              1             0             1 
    70 r_1_3_5      *              0             0             1 
    71 u_1_3_5      *              0             0             1 
    72 r_2_3_5      *              1             0             1 
    73 u_2_3_5      *              0             0             1 
    74 r_1_3_7      *              1             0             1 
    75 u_1_3_7      *              0             0             1 
    76 r_2_3_7      *              1             0             1 
    77 u_2_3_7      *              0             0             1 
    78 r_1_4_5      *              0             0             1 
    79 u_1_4_5      *              0             0             1 
    80 r_2_4_5      *              1             0             1 
    81 u_2_4_5      *              0             0             1 
    82 r_1_4_7      *              1             0             1 
    83 u_1_4_7      *              0             0             1 
    84 r_2_4_7      *              1             0             1 
    85 u_2_4_7      *              0             0             1 
    86 r_1_7_8      *              1             0             1 
    87 u_1_7_8      *              0             0             1 
    88 r_2_7_8      *              1             0             1 
    89 u_2_7_8      *              0             0             1 

Integer feasibility conditions:

KKT.PE: max.abs.err = 4.55e-13 on row 52
        max.rel.err = 1.10e-16 on row 196
        High quality

KKT.PB: max.abs.err = 3.41e-13 on row 22
        max.rel.err = 3.41e-16 on row 22
        High quality

End of output
